
Gurobi 11.0.3 (linux64) logging started Tue 19 Nov 2024 02:01:20 AM CST

Set parameter LogFile to value "/home/dlcole3/graph_abstraction/hierarchical_graphs/git_storage/CS1/HP_low_reserves/gurobi_logs/serial/logfile_ST32_4.log"

Gurobi 11.0.3 (linux64) logging started Tue 19 Nov 2024 02:04:47 AM CST

Set parameter LogFile to value "/home/dlcole3/graph_abstraction/hierarchical_graphs/git_storage/CS1/HP_low_reserves/gurobi_logs/serial/logfile_ST32_4.log"
Gurobi Optimizer version 11.0.3 build v11.0.3rc0 (linux64 - "Ubuntu 18.04.3 LTS")

CPU model: Intel(R) Xeon(R) CPU E5-2698 v4 @ 2.20GHz, instruction set [SSE2|AVX|AVX2]
Thread count: 40 physical cores, 80 logical processors, using up to 20 threads

Optimize a model with 29168 rows, 50688 columns and 136175 nonzeros
Model fingerprint: 0xe7139b11
Variable types: 46944 continuous, 3744 integer (3744 binary)
Coefficient statistics:
  Matrix range     [6e-01, 2e+04]
  Objective range  [2e+00, 2e+04]
  Bounds range     [5e-02, 2e+05]
  RHS range        [5e-02, 7e+03]
Presolve removed 13891 rows and 38605 columns
Presolve time: 0.38s
Presolved: 15277 rows, 12083 columns, 65161 nonzeros
Variable types: 8995 continuous, 3088 integer (3088 binary)
Found heuristic solution: objective 4464345.4132
Found heuristic solution: objective 3747410.3177

Root relaxation: objective 1.532664e+05, 9647 iterations, 0.63 seconds (0.54 work units)

    Nodes    |    Current Node    |     Objective Bounds      |     Work
 Expl Unexpl |  Obj  Depth IntInf | Incumbent    BestBd   Gap | It/Node Time

     0     0 153266.353    0   40 3747410.32 153266.353  95.9%     -    1s
H    0     0                    173082.01424 153266.353  11.4%     -    2s
     0     0 153266.353    0   45 173082.014 153266.353  11.4%     -    2s
H    0     0                    170556.86561 153271.504  10.1%     -    2s
H    0     0                    170556.86527 153271.504  10.1%     -    2s
     0     0 153271.504    0   45 170556.865 153271.504  10.1%     -    2s
     0     0 153576.763    0   45 170556.865 153576.763  10.0%     -    2s
     0     2 153576.763    0   45 170556.865 153576.763  10.0%     -    3s
H   34    52                    163679.71935 153740.549  6.07%   104    4s
    91   112 154302.355    7   21 163679.719 153812.182  6.03%  73.1    5s
H   95   112                    163679.71922 153812.182  6.03%  70.5    5s
H   99   112                    160833.72942 153814.283  4.36%  68.8    5s
H  474   464                    160054.26900 153824.214  3.89%  45.3    6s
H  642   639                    157354.20984 153824.214  2.24%  43.7    7s
H  805   721                    154913.63523 153824.214  0.70%  43.2   12s
H  810   721                    154908.04046 153824.214  0.70%  43.2   12s
H  811   721                    154908.04024 153824.214  0.70%  43.2   12s
H  821   721                    154877.57263 153824.214  0.68%  43.1   12s
H 1704   830                    154856.47440 154009.092  0.55%  32.5   13s
H 1881   853                    154854.32313 154292.490  0.36%  30.9   13s
H 1885   853                    154853.20078 154292.490  0.36%  30.9   13s
  1956   914 154846.049   23   39 154853.201 154292.490  0.36%  30.3   22s
H 2033   914                    154853.02155 154340.287  0.33%  29.5   22s

Cutting planes:
  Gomory: 1

Explored 2774 nodes (78745 simplex iterations) in 22.53 seconds (19.02 work units)
Thread count was 20 (of 80 available processors)

Solution count 10: 154853 154853 154878 ... 170557

Optimal solution found (tolerance 3.00e-03)
Best objective 1.548530214937e+05, best bound 1.546670634410e+05, gap 0.1201%

User-callback calls 15746, time in user-callback 0.03 sec
